32,99
12,91
33,70
97,14
20,32
66,85
60,23
57,95
23,32
76,27
35,14
68,86
40,87
94,68
82,19
70,64
80,80
12,15
93,85
38,61
22,97
93,21
23,89
80,61
27,95
80,77
46,61
45,86
86,44
95,43
18,38
22,35
11,13
73,33
58,19
73,10
12,34
64,36
39,73
21,35
64,70
30,81
84,12
23,43
88,93
48,17
15,24
81,18
83,27
80,39

494
999
369
128
263
129
20
37
1
83
